c Tree graph with 51 vertices and 50 edges
c This is a connected acyclic graph (tree)
p edge 51 50
c backbone path
1 2
2 3
3 4
4 5
5 6
6 7
7 8
8 9
9 10
10 11
11 12
12 13
13 14
14 15
15 16
16 17
17 18
18 19
19 20
3 21
3 22
4 23
5 24
5 25
6 26
7 27
7 28
8 29
9 30
9 31
10 32
11 33
11 34
12 35
13 36
13 37
14 38
15 39
15 40
16 41
17 42
17 43
18 44
19 45
19 46
20 47
20 48
20 49
20 50
20 51